Traveling Salesman Problem/TSP_generados/Aleatorio1620392301_16.tsp
NAME: Aleatorio1620392301_16.tsp
COMMENT: Randomly generated scenario
TYPE: TSP
DIMENSION: 16
EDGE_WEIGHT_TYPE: ATT
NODE_COORD_SECTION
1 22.92 41.53
2 19.34 2.8
3 34.57 26.75
4 29.57 31.79
5 28.7 22.61
6 2.66 40.95
7 12.36 36.31
8 45.15 49.73
9 17.57 6.51
10 29.97 23.48
11 41.46 0.65
12 20.22 34.65
13 43.62 8.77
14 2.99 36.47
15 9.34 30.61
16 29.49 4.58
