Traveling Salesman Problem/TSP_generados/Aleatorio1620392301_16.opt.tour
NAME: Aleatorio1620392301_16.opt.tour
COMMENT: Optimal solution for Aleatorio1620392301_16 (182.2811823156028)
TYPE: TOUR
DIMENSION: 16
TOUR_SECTION
1 12 7 6 14 15 9 2 16 11 13 5 10 3 4 8
-1
EOF
